CPXPARAM_TimeLimit                               3600
CPXPARAM_Read_DataCheck                          1
CPXPARAM_MIP_Limits_Solutions                    1
Tried aggregator 1 time.
MIP Presolve eliminated 5794 rows and 0 columns.
MIP Presolve modified 9584 coefficients.
Reduced MIP has 582776 rows, 189676 columns, and 2117752 nonzeros.
Reduced MIP has 6525 binaries, 0 generals, 0 SOSs, and 0 indicators.
Presolve time = 0.59 sec. (823.55 ticks)
Found incumbent of value 17791.000000 after 1.15 sec. (1391.30 ticks)

Root node processing (before b&c):
  Real time             =    1.16 sec. (1400.56 ticks)
Parallel b&c, 8 threads:
  Real time             =    0.00 sec. (0.00 ticks)
  Sync time (average)   =    0.00 sec.
  Wait time (average)   =    0.00 sec.
                          ------------
Total (root+branch&cut) =    1.16 sec. (1400.56 ticks)
